40
1 0 4
3 0 4
4 3 5
5 2 4
6 1 1
6 2 4
7 0 3
7 1 5
7 2 1
7 3 5
7 4 4
7 5 1
8 1 5
8 2 5
9 2 3
9 3 5
9 5 2
9 6 5
9 7 5
10 0 2
10 3 1
11 0 2
11 1 4
11 2 5
11 3 3
11 5 4
11 6 2
11 7 5
11 8 5
11 9 4
12 0 2
12 4 5
12 6 3
12 7 1
12 10 4
12 11 2
13 1 3
13 2 4
13 5 1
13 8 1
13 9 1
13 10 3
13 11 3
14 1 5
14 4 2
14 5 2
14 7 1
14 8 4
14 9 3
14 12 4
15 0 1
15 2 4
15 5 1
15 7 3
15 9 1
15 10 5
15 11 5
15 12 1
16 0 3
16 2 2
16 3 4
16 5 5
16 6 1
16 7 2
16 8 5
16 12 1
16 13 5
17 3 4
17 6 1
17 11 1
17 12 5
17 15 4
17 16 2
18 0 2
18 2 2
18 3 5
18 4 4
18 6 2
18 7 1
18 12 1
18 13 2
18 14 1
18 17 2
19 3 4
19 7 4
19 10 2
19 12 1
19 15 4
19 17 5
19 18 5
20 2 5
20 5 1
20 6 1
20 8 3
20 11 3
20 12 3
20 14 1
20 19 3
21 3 2
21 4 2
21 6 4
21 7 4
21 8 5
21 10 5
21 12 1
21 14 5
21 16 2
21 17 4
21 18 3
21 19 5
21 20 5
22 1 2
22 6 3
22 7 2
22 9 1
22 10 5
22 13 4
22 15 3
22 16 2
22 19 3
22 20 3
23 0 5
23 1 1
23 3 1
23 4 3
23 6 1
23 8 1
23 14 1
23 15 1
23 16 2
23 18 2
23 21 5
24 0 3
24 3 4
24 4 2
24 5 2
24 8 3
24 9 5
24 10 3
24 12 2
24 13 4
24 14 4
24 17 4
24 19 4
24 22 3
24 23 5
25 3 4
25 5 4
25 7 4
25 10 4
25 11 4
25 13 2
25 14 2
25 16 1
25 17 2
25 18 5
25 19 1
25 21 3
25 22 1
25 23 4
25 24 4
26 0 4
26 1 4
26 5 3
26 9 4
26 10 3
26 15 5
26 17 3
26 25 3
27 1 3
27 2 1
27 8 5
27 11 3
27 20 5
27 23 2
27 24 5
27 25 4
27 26 4
28 0 5
28 2 4
28 3 4
28 4 1
28 6 3
28 7 3
28 10 4
28 15 3
28 16 2
28 17 3
28 19 2
28 21 2
28 22 4
28 24 5
28 25 1
29 0 3
29 7 5
29 9 2
29 10 4
29 11 1
29 13 5
29 17 2
29 18 2
29 21 1
29 22 2
29 23 3
29 24 4
29 26 2
29 28 4
30 0 2
30 2 1
30 7 1
30 9 2
30 10 2
30 17 2
30 24 1
30 26 4
30 27 3
30 29 3
31 0 5
31 1 5
31 3 3
31 5 2
31 6 4
31 7 4
31 9 1
31 10 2
31 15 3
31 17 3
31 18 2
31 20 1
31 21 3
31 22 3
31 27 2
31 28 5
31 30 4
32 1 3
32 5 3
32 7 3
32 10 1
32 11 1
32 12 4
32 13 4
32 14 1
32 15 4
32 17 2
32 18 4
32 22 3
32 23 5
32 25 5
32 27 4
32 28 4
32 29 5
32 31 5
33 1 4
33 3 4
33 7 2
33 9 4
33 10 5
33 12 1
33 13 2
33 16 1
33 19 1
33 20 4
33 22 3
33 24 5
33 25 5
33 28 4
33 29 5
33 30 1
34 1 4
34 3 4
34 4 1
34 5 1
34 7 3
34 9 4
34 12 4
34 15 2
34 16 2
34 18 2
34 19 4
34 21 5
34 25 5
34 26 1
34 27 5
34 28 3
34 29 1
34 31 5
35 3 3
35 4 3
35 7 3
35 12 3
35 14 1
35 15 5
35 16 1
35 17 1
35 18 4
35 20 4
35 22 1
35 24 3
35 28 3
35 29 3
35 31 4
35 32 2
35 33 4
35 34 3
36 0 5
36 1 3
36 5 5
36 7 1
36 17 2
36 19 1
36 20 4
36 22 1
36 23 3
36 24 3
36 25 5
36 26 4
36 28 4
36 31 2
36 32 3
36 33 1
36 34 4
36 35 5
37 0 3
37 1 3
37 7 5
37 10 5
37 12 2
37 13 4
37 16 4
37 17 4
37 24 3
37 26 2
37 27 3
37 30 4
37 31 2
37 33 1
37 34 5
37 35 1
37 36 1
38 0 2
38 1 2
38 3 5
38 7 3
38 8 3
38 10 1
38 11 3
38 12 3
38 17 4
38 21 2
38 22 5
38 23 3
38 27 4
38 28 1
38 29 3
38 30 5
38 34 2
38 35 3
38 36 3
39 0 3
39 1 2
39 3 1
39 5 2
39 7 5
39 10 3
39 11 2
39 15 1
39 16 3
39 17 5
39 21 3
39 22 4
39 23 3
39 25 2
39 27 2
39 28 2
39 29 5
39 31 2
39 37 1
